data/lp_files/q3/57_8.lp
\ Model foo
\ LP format - for model browsing. Use MPS format to capture full model detail.
Minimize
  z
Subject To
 allocateEach[1]: x[1,1] + x[2,1] + x[3,1] = 1
 allocateEach[2]: x[1,2] + x[2,2] + x[3,2] = 1
 allocateEach[3]: x[1,3] + x[2,3] + x[3,3] = 1
 allocateEach[4]: x[1,4] + x[2,4] + x[3,4] = 1
 allocateEach[5]: x[1,5] + x[2,5] + x[3,5] = 1
 allocateEach[6]: x[1,6] + x[2,6] + x[3,6] = 1
 allocateEach[7]: x[1,7] + x[2,7] + x[3,7] = 1
 allocateEach[8]: x[1,8] + x[2,8] + x[3,8] = 1
 allocateEach[9]: x[1,9] + x[2,9] + x[3,9] = 1
 allocateEach[10]: x[1,10] + x[2,10] + x[3,10] = 1
 allocateEach[11]: x[1,11] + x[2,11] + x[3,11] = 1
 allocateEach[12]: x[1,12] + x[2,12] + x[3,12] = 1
 allocateEach[13]: x[1,13] + x[2,13] + x[3,13] = 1
 allocateEach[14]: x[1,14] + x[2,14] + x[3,14] = 1
 allocateEach[15]: x[1,15] + x[2,15] + x[3,15] = 1
 allocateEach[16]: x[1,16] + x[2,16] + x[3,16] = 1
 allocateEach[17]: x[1,17] + x[2,17] + x[3,17] = 1
 allocateAllCash: cashProportion[1] + cashProportion[2] + cashProportion[3]
   = 1
 findWorstP[1,2]: z + 0.0843588202418989 cashProportion[1]
   - 0.0843588202418989 cashProportion[2] + 0.00819335041599443 x[1,1]
   + 0.0935328419432054 x[1,2] + 0.00945873271962291 x[1,3]
   + 0.0799616167367899 x[1,4] + 0.0330053884196429 x[1,5]
   + 0.0700705450634273 x[1,6] + 0.0901584891335294 x[1,7]
   + 0.1044467643120011 x[1,8] + 0.095915978615039 x[1,9]
   + 0.0228612402855546 x[1,10] + 0.0437716828530153 x[1,11]
   + 0.0849915113937132 x[1,12] + 0.0867735914713233 x[1,13]
   + 0.0411987388356374 x[1,14] + 0.0202355720055255 x[1,15]
   + 0.0301055539738277 x[1,16] + 9.5958158025160006e-04 x[1,17]
   - 0.00819335041599443 x[2,1] - 0.0935328419432054 x[2,2]
   - 0.00945873271962291 x[2,3] - 0.0799616167367899 x[2,4]
   - 0.0330053884196429 x[2,5] - 0.0700705450634273 x[2,6]
   - 0.0901584891335294 x[2,7] - 0.1044467643120011 x[2,8]
   - 0.095915978615039 x[2,9] - 0.0228612402855546 x[2,10]
   - 0.0437716828530153 x[2,11] - 0.0849915113937132 x[2,12]
   - 0.0867735914713233 x[2,13] - 0.0411987388356374 x[2,14]
   - 0.0202355720055255 x[2,15] - 0.0301055539738277 x[2,16]
   - 9.5958158025160006e-04 x[2,17] >= 0
 findWorstP[1,3]: z + 0.0843588202418989 cashProportion[1]
   - 0.0843588202418989 cashProportion[3] + 0.00819335041599443 x[1,1]
   + 0.0935328419432054 x[1,2] + 0.00945873271962291 x[1,3]
   + 0.0799616167367899 x[1,4] + 0.0330053884196429 x[1,5]
   + 0.0700705450634273 x[1,6] + 0.0901584891335294 x[1,7]
   + 0.1044467643120011 x[1,8] + 0.095915978615039 x[1,9]
   + 0.0228612402855546 x[1,10] + 0.0437716828530153 x[1,11]
   + 0.0849915113937132 x[1,12] + 0.0867735914713233 x[1,13]
   + 0.0411987388356374 x[1,14] + 0.0202355720055255 x[1,15]
   + 0.0301055539738277 x[1,16] + 9.5958158025160006e-04 x[1,17]
   - 0.00819335041599443 x[3,1] - 0.0935328419432054 x[3,2]
   - 0.00945873271962291 x[3,3] - 0.0799616167367899 x[3,4]
   - 0.0330053884196429 x[3,5] - 0.0700705450634273 x[3,6]
   - 0.0901584891335294 x[3,7] - 0.1044467643120011 x[3,8]
   - 0.095915978615039 x[3,9] - 0.0228612402855546 x[3,10]
   - 0.0437716828530153 x[3,11] - 0.0849915113937132 x[3,12]
   - 0.0867735914713233 x[3,13] - 0.0411987388356374 x[3,14]
   - 0.0202355720055255 x[3,15] - 0.0301055539738277 x[3,16]
   - 9.5958158025160006e-04 x[3,17] >= 0
 findWorstP[2,1]: z - 0.081541127306085 cashProportion[1]
   + 0.081541127306085 cashProportion[2] - 0.0334522474773214 x[1,1]
   - 0.0933238202018143 x[1,2] - 0.0833044541840791 x[1,3]
   - 0.1013250433187239 x[1,4] - 0.0135664050555499 x[1,5]
   - 0.0233717256141066 x[1,6] - 0.00544287024768117 x[1,7]
   - 0.0106411171134441 x[1,8] - 0.1003567424319641 x[1,9]
   - 0.0789318112322903 x[1,10] - 0.0578636224645806 x[1,11]
   - 0.0272551218020589 x[1,12] - 0.0513301396391805 x[1,13]
   - 0.00406686372439099 x[1,14] - 0.0987564978085822 x[1,15]
   - 0.076026908572011 x[1,16] - 0.059443481806136 x[1,17]
   + 0.0334522474773214 x[2,1] + 0.0933238202018143 x[2,2]
   + 0.0833044541840791 x[2,3] + 0.1013250433187239 x[2,4]
   + 0.0135664050555499 x[2,5] + 0.0233717256141066 x[2,6]
   + 0.00544287024768117 x[2,7] + 0.0106411171134441 x[2,8]
   + 0.1003567424319641 x[2,9] + 0.0789318112322903 x[2,10]
   + 0.0578636224645806 x[2,11] + 0.0272551218020589 x[2,12]
   + 0.0513301396391805 x[2,13] + 0.00406686372439099 x[2,14]
   + 0.0987564978085822 x[2,15] + 0.076026908572011 x[2,16]
   + 0.059443481806136 x[2,17] >= 0
 findWorstP[2,3]: z + 0.081541127306085 cashProportion[2]
   - 0.081541127306085 cashProportion[3] + 0.0334522474773214 x[2,1]
   + 0.0933238202018143 x[2,2] + 0.0833044541840791 x[2,3]
   + 0.1013250433187239 x[2,4] + 0.0135664050555499 x[2,5]
   + 0.0233717256141066 x[2,6] + 0.00544287024768117 x[2,7]
   + 0.0106411171134441 x[2,8] + 0.1003567424319641 x[2,9]
   + 0.0789318112322903 x[2,10] + 0.0578636224645806 x[2,11]
   + 0.0272551218020589 x[2,12] + 0.0513301396391805 x[2,13]
   + 0.00406686372439099 x[2,14] + 0.0987564978085822 x[2,15]
   + 0.076026908572011 x[2,16] + 0.059443481806136 x[2,17]
   - 0.0334522474773214 x[3,1] - 0.0933238202018143 x[3,2]
   - 0.0833044541840791 x[3,3] - 0.1013250433187239 x[3,4]
   - 0.0135664050555499 x[3,5] - 0.0233717256141066 x[3,6]
   - 0.00544287024768117 x[3,7] - 0.0106411171134441 x[3,8]
   - 0.1003567424319641 x[3,9] - 0.0789318112322903 x[3,10]
   - 0.0578636224645806 x[3,11] - 0.0272551218020589 x[3,12]
   - 0.0513301396391805 x[3,13] - 0.00406686372439099 x[3,14]
   - 0.0987564978085822 x[3,15] - 0.076026908572011 x[3,16]
   - 0.059443481806136 x[3,17] >= 0
 findWorstP[3,1]: z - 0.0749232037161909 cashProportion[1]
   + 0.0749232037161909 cashProportion[3] - 0.083792237956095 x[1,1]
   - 0.0774705926425414 x[1,2] - 0.0934198696336255 x[1,3]
   - 0.014319697310257 x[1,4] - 0.0374335056567019 x[1,5]
   - 0.082434254888739 x[1,6] - 0.0338746534801828 x[1,7]
   - 0.070455907694613 x[1,8] - 0.0716078519517494 x[1,9]
   - 0.0822563122799131 x[1,10] - 0.0174383756649434 x[1,11]
   - 0.0225706151195025 x[1,12] - 0.0623361054918708 x[1,13]
   - 0.0410485502360081 x[1,14] - 0.016108488798981 x[1,15]
   - 0.090872480707275 x[1,16] - 0.0276372967708099 x[1,17]
   + 0.083792237956095 x[3,1] + 0.0774705926425414 x[3,2]
   + 0.0934198696336255 x[3,3] + 0.014319697310257 x[3,4]
   + 0.0374335056567019 x[3,5] + 0.082434254888739 x[3,6]
   + 0.0338746534801828 x[3,7] + 0.070455907694613 x[3,8]
   + 0.0716078519517494 x[3,9] + 0.0822563122799131 x[3,10]
   + 0.0174383756649434 x[3,11] + 0.0225706151195025 x[3,12]
   + 0.0623361054918708 x[3,13] + 0.0410485502360081 x[3,14]
   + 0.016108488798981 x[3,15] + 0.090872480707275 x[3,16]
   + 0.0276372967708099 x[3,17] >= 0
 findWorstP[3,2]: z - 0.0749232037161909 cashProportion[2]
   + 0.0749232037161909 cashProportion[3] - 0.083792237956095 x[2,1]
   - 0.0774705926425414 x[2,2] - 0.0934198696336255 x[2,3]
   - 0.014319697310257 x[2,4] - 0.0374335056567019 x[2,5]
   - 0.082434254888739 x[2,6] - 0.0338746534801828 x[2,7]
   - 0.070455907694613 x[2,8] - 0.0716078519517494 x[2,9]
   - 0.0822563122799131 x[2,10] - 0.0174383756649434 x[2,11]
   - 0.0225706151195025 x[2,12] - 0.0623361054918708 x[2,13]
   - 0.0410485502360081 x[2,14] - 0.016108488798981 x[2,15]
   - 0.090872480707275 x[2,16] - 0.0276372967708099 x[2,17]
   + 0.083792237956095 x[3,1] + 0.0774705926425414 x[3,2]
   + 0.0934198696336255 x[3,3] + 0.014319697310257 x[3,4]
   + 0.0374335056567019 x[3,5] + 0.082434254888739 x[3,6]
   + 0.0338746534801828 x[3,7] + 0.070455907694613 x[3,8]
   + 0.0716078519517494 x[3,9] + 0.0822563122799131 x[3,10]
   + 0.0174383756649434 x[3,11] + 0.0225706151195025 x[3,12]
   + 0.0623361054918708 x[3,13] + 0.0410485502360081 x[3,14]
   + 0.016108488798981 x[3,15] + 0.090872480707275 x[3,16]
   + 0.0276372967708099 x[3,17] >= 0
Bounds
 z <= 1
 -infinity <= cashProportion[1] <= 1
 -infinity <= cashProportion[2] <= 1
 -infinity <= cashProportion[3] <= 1
Binaries
 x[1,1] x[1,2] x[1,3] x[1,4] x[1,5] x[1,6] x[1,7] x[1,8] x[1,9] x[1,10]
 x[1,11] x[1,12] x[1,13] x[1,14] x[1,15] x[1,16] x[1,17] x[2,1] x[2,2]
 x[2,3] x[2,4] x[2,5] x[2,6] x[2,7] x[2,8] x[2,9] x[2,10] x[2,11] x[2,12]
 x[2,13] x[2,14] x[2,15] x[2,16] x[2,17] x[3,1] x[3,2] x[3,3] x[3,4] x[3,5]
 x[3,6] x[3,7] x[3,8] x[3,9] x[3,10] x[3,11] x[3,12] x[3,13] x[3,14]
 x[3,15] x[3,16] x[3,17]
End
