data/mps_files/pEFS/57_8.mps
NAME foo
ROWS
 N  OBJ
 E  allocateEach[1]
 E  allocateEach[2]
 E  allocateEach[3]
 E  allocateEach[4]
 E  allocateEach[5]
 E  allocateEach[6]
 E  allocateEach[7]
 E  allocateEach[8]
 E  allocateEach[9]
 E  allocateEach[10]
 E  allocateEach[11]
 E  allocateEach[12]
 E  allocateEach[13]
 E  allocateEach[14]
 E  allocateEach[15]
 E  allocateEach[16]
 E  allocateEach[17]
 E  allocateAllCash
 G  findWorstP[1,2]
 G  findWorstP[1,3]
 G  findWorstP[2,1]
 G  findWorstP[2,3]
 G  findWorstP[3,1]
 G  findWorstP[3,2]
COLUMNS
    z         OBJ       1
    z         findWorstP[1,2]  1
    z         findWorstP[1,3]  1
    z         findWorstP[2,1]  1
    z         findWorstP[2,3]  1
    z         findWorstP[3,1]  1
    z         findWorstP[3,2]  1
    cashProportion[1]  allocateAllCash  1
    cashProportion[1]  findWorstP[1,2]  8.4358820241898919e-02
    cashProportion[1]  findWorstP[1,3]  8.4358820241898919e-02
    cashProportion[1]  findWorstP[2,1]  -8.1541127306085023e-02
    cashProportion[1]  findWorstP[3,1]  -0.0749232037161909
    cashProportion[2]  allocateAllCash  1
    cashProportion[2]  findWorstP[1,2]  -8.4358820241898919e-02
    cashProportion[2]  findWorstP[2,1]  8.1541127306085023e-02
    cashProportion[2]  findWorstP[2,3]  8.1541127306085023e-02
    cashProportion[2]  findWorstP[3,2]  -0.0749232037161909
    cashProportion[3]  allocateAllCash  1
    cashProportion[3]  findWorstP[1,3]  -8.4358820241898919e-02
    cashProportion[3]  findWorstP[2,3]  -8.1541127306085023e-02
    cashProportion[3]  findWorstP[3,1]  0.0749232037161909
    cashProportion[3]  findWorstP[3,2]  0.0749232037161909
    MARKER    'MARKER'                 'INTORG'
    x[1,1]    allocateEach[1]  1
    x[1,1]    findWorstP[1,2]  8.1933504159944319e-03
    x[1,1]    findWorstP[1,3]  8.1933504159944319e-03
    x[1,1]    findWorstP[2,1]  -3.3452247477321374e-02
    x[1,1]    findWorstP[3,1]  -8.3792237956094986e-02
    x[1,2]    allocateEach[2]  1
    x[1,2]    findWorstP[1,2]  9.3532841943205408e-02
    x[1,2]    findWorstP[1,3]  9.3532841943205408e-02
    x[1,2]    findWorstP[2,1]  -9.3323820201814289e-02
    x[1,2]    findWorstP[3,1]  -7.7470592642541386e-02
    x[1,3]    allocateEach[3]  1
    x[1,3]    findWorstP[1,2]  9.4587327196229143e-03
    x[1,3]    findWorstP[1,3]  9.4587327196229143e-03
    x[1,3]    findWorstP[2,1]  -0.0833044541840791
    x[1,3]    findWorstP[3,1]  -9.3419869633625516e-02
    x[1,4]    allocateEach[4]  1
    x[1,4]    findWorstP[1,2]  7.9961616736789920e-02
    x[1,4]    findWorstP[1,3]  7.9961616736789920e-02
    x[1,4]    findWorstP[2,1]  -1.0132504331872387e-01
    x[1,4]    findWorstP[3,1]  -1.4319697310256984e-02
    x[1,5]    allocateEach[5]  1
    x[1,5]    findWorstP[1,2]  3.3005388419642942e-02
    x[1,5]    findWorstP[1,3]  3.3005388419642942e-02
    x[1,5]    findWorstP[2,1]  -1.3566405055549893e-02
    x[1,5]    findWorstP[3,1]  -3.7433505656701872e-02
    x[1,6]    allocateEach[6]  1
    x[1,6]    findWorstP[1,2]  7.0070545063427275e-02
    x[1,6]    findWorstP[1,3]  7.0070545063427275e-02
    x[1,6]    findWorstP[2,1]  -2.3371725614106616e-02
    x[1,6]    findWorstP[3,1]  -8.2434254888739025e-02
    x[1,7]    allocateEach[7]  1
    x[1,7]    findWorstP[1,2]  9.0158489133529446e-02
    x[1,7]    findWorstP[1,3]  9.0158489133529446e-02
    x[1,7]    findWorstP[2,1]  -5.4428702476811740e-03
    x[1,7]    findWorstP[3,1]  -3.3874653480182808e-02
    x[1,8]    allocateEach[8]  1
    x[1,8]    findWorstP[1,2]  1.0444676431200109e-01
    x[1,8]    findWorstP[1,3]  1.0444676431200109e-01
    x[1,8]    findWorstP[2,1]  -1.0641117113444093e-02
    x[1,8]    findWorstP[3,1]  -0.070455907694613
    x[1,9]    allocateEach[9]  1
    x[1,9]    findWorstP[1,2]  9.5915978615039046e-02
    x[1,9]    findWorstP[1,3]  9.5915978615039046e-02
    x[1,9]    findWorstP[2,1]  -1.0035674243196412e-01
    x[1,9]    findWorstP[3,1]  -7.1607851951749443e-02
    x[1,10]   allocateEach[10]  1
    x[1,10]   findWorstP[1,2]  2.2861240285554602e-02
    x[1,10]   findWorstP[1,3]  2.2861240285554602e-02
    x[1,10]   findWorstP[2,1]  -7.8931811232290275e-02
    x[1,10]   findWorstP[3,1]  -8.2256312279913063e-02
    x[1,11]   allocateEach[11]  1
    x[1,11]   findWorstP[1,2]  0.0437716828530153
    x[1,11]   findWorstP[1,3]  0.0437716828530153
    x[1,11]   findWorstP[2,1]  -5.7863622464580572e-02
    x[1,11]   findWorstP[3,1]  -1.7438375664943429e-02
    x[1,12]   allocateEach[12]  1
    x[1,12]   findWorstP[1,2]  8.4991511393713151e-02
    x[1,12]   findWorstP[1,3]  8.4991511393713151e-02
    x[1,12]   findWorstP[2,1]  -2.7255121802058916e-02
    x[1,12]   findWorstP[3,1]  -2.2570615119502504e-02
    x[1,13]   allocateEach[13]  1
    x[1,13]   findWorstP[1,2]  8.6773591471323255e-02
    x[1,13]   findWorstP[1,3]  8.6773591471323255e-02
    x[1,13]   findWorstP[2,1]  -5.1330139639180518e-02
    x[1,13]   findWorstP[3,1]  -6.2336105491870818e-02
    x[1,14]   allocateEach[14]  1
    x[1,14]   findWorstP[1,2]  4.1198738835637377e-02
    x[1,14]   findWorstP[1,3]  4.1198738835637377e-02
    x[1,14]   findWorstP[2,1]  -4.0668637243909895e-03
    x[1,14]   findWorstP[3,1]  -4.1048550236008084e-02
    x[1,15]   allocateEach[15]  1
    x[1,15]   findWorstP[1,2]  2.0235572005525497e-02
    x[1,15]   findWorstP[1,3]  2.0235572005525497e-02
    x[1,15]   findWorstP[2,1]  -0.0987564978085822
    x[1,15]   findWorstP[3,1]  -1.6108488798981038e-02
    x[1,16]   allocateEach[16]  1
    x[1,16]   findWorstP[1,2]  3.0105553973827668e-02
    x[1,16]   findWorstP[1,3]  3.0105553973827668e-02
    x[1,16]   findWorstP[2,1]  -7.6026908572011012e-02
    x[1,16]   findWorstP[3,1]  -9.0872480707275036e-02
    x[1,17]   allocateEach[17]  1
    x[1,17]   findWorstP[1,2]  9.5958158025160006e-04
    x[1,17]   findWorstP[1,3]  9.5958158025160006e-04
    x[1,17]   findWorstP[2,1]  -5.9443481806135970e-02
    x[1,17]   findWorstP[3,1]  -2.7637296770809911e-02
    x[2,1]    allocateEach[1]  1
    x[2,1]    findWorstP[1,2]  -8.1933504159944319e-03
    x[2,1]    findWorstP[2,1]  3.3452247477321374e-02
    x[2,1]    findWorstP[2,3]  3.3452247477321374e-02
    x[2,1]    findWorstP[3,2]  -8.3792237956094986e-02
    x[2,2]    allocateEach[2]  1
    x[2,2]    findWorstP[1,2]  -9.3532841943205408e-02
    x[2,2]    findWorstP[2,1]  9.3323820201814289e-02
    x[2,2]    findWorstP[2,3]  9.3323820201814289e-02
    x[2,2]    findWorstP[3,2]  -7.7470592642541386e-02
    x[2,3]    allocateEach[3]  1
    x[2,3]    findWorstP[1,2]  -9.4587327196229143e-03
    x[2,3]    findWorstP[2,1]  0.0833044541840791
    x[2,3]    findWorstP[2,3]  0.0833044541840791
    x[2,3]    findWorstP[3,2]  -9.3419869633625516e-02
    x[2,4]    allocateEach[4]  1
    x[2,4]    findWorstP[1,2]  -7.9961616736789920e-02
    x[2,4]    findWorstP[2,1]  1.0132504331872387e-01
    x[2,4]    findWorstP[2,3]  1.0132504331872387e-01
    x[2,4]    findWorstP[3,2]  -1.4319697310256984e-02
    x[2,5]    allocateEach[5]  1
    x[2,5]    findWorstP[1,2]  -3.3005388419642942e-02
    x[2,5]    findWorstP[2,1]  1.3566405055549893e-02
    x[2,5]    findWorstP[2,3]  1.3566405055549893e-02
    x[2,5]    findWorstP[3,2]  -3.7433505656701872e-02
    x[2,6]    allocateEach[6]  1
    x[2,6]    findWorstP[1,2]  -7.0070545063427275e-02
    x[2,6]    findWorstP[2,1]  2.3371725614106616e-02
    x[2,6]    findWorstP[2,3]  2.3371725614106616e-02
    x[2,6]    findWorstP[3,2]  -8.2434254888739025e-02
    x[2,7]    allocateEach[7]  1
    x[2,7]    findWorstP[1,2]  -9.0158489133529446e-02
    x[2,7]    findWorstP[2,1]  5.4428702476811740e-03
    x[2,7]    findWorstP[2,3]  5.4428702476811740e-03
    x[2,7]    findWorstP[3,2]  -3.3874653480182808e-02
    x[2,8]    allocateEach[8]  1
    x[2,8]    findWorstP[1,2]  -1.0444676431200109e-01
    x[2,8]    findWorstP[2,1]  1.0641117113444093e-02
    x[2,8]    findWorstP[2,3]  1.0641117113444093e-02
    x[2,8]    findWorstP[3,2]  -0.070455907694613
    x[2,9]    allocateEach[9]  1
    x[2,9]    findWorstP[1,2]  -9.5915978615039046e-02
    x[2,9]    findWorstP[2,1]  1.0035674243196412e-01
    x[2,9]    findWorstP[2,3]  1.0035674243196412e-01
    x[2,9]    findWorstP[3,2]  -7.1607851951749443e-02
    x[2,10]   allocateEach[10]  1
    x[2,10]   findWorstP[1,2]  -2.2861240285554602e-02
    x[2,10]   findWorstP[2,1]  7.8931811232290275e-02
    x[2,10]   findWorstP[2,3]  7.8931811232290275e-02
    x[2,10]   findWorstP[3,2]  -8.2256312279913063e-02
    x[2,11]   allocateEach[11]  1
    x[2,11]   findWorstP[1,2]  -0.0437716828530153
    x[2,11]   findWorstP[2,1]  5.7863622464580572e-02
    x[2,11]   findWorstP[2,3]  5.7863622464580572e-02
    x[2,11]   findWorstP[3,2]  -1.7438375664943429e-02
    x[2,12]   allocateEach[12]  1
    x[2,12]   findWorstP[1,2]  -8.4991511393713151e-02
    x[2,12]   findWorstP[2,1]  2.7255121802058916e-02
    x[2,12]   findWorstP[2,3]  2.7255121802058916e-02
    x[2,12]   findWorstP[3,2]  -2.2570615119502504e-02
    x[2,13]   allocateEach[13]  1
    x[2,13]   findWorstP[1,2]  -8.6773591471323255e-02
    x[2,13]   findWorstP[2,1]  5.1330139639180518e-02
    x[2,13]   findWorstP[2,3]  5.1330139639180518e-02
    x[2,13]   findWorstP[3,2]  -6.2336105491870818e-02
    x[2,14]   allocateEach[14]  1
    x[2,14]   findWorstP[1,2]  -4.1198738835637377e-02
    x[2,14]   findWorstP[2,1]  4.0668637243909895e-03
    x[2,14]   findWorstP[2,3]  4.0668637243909895e-03
    x[2,14]   findWorstP[3,2]  -4.1048550236008084e-02
    x[2,15]   allocateEach[15]  1
    x[2,15]   findWorstP[1,2]  -2.0235572005525497e-02
    x[2,15]   findWorstP[2,1]  0.0987564978085822
    x[2,15]   findWorstP[2,3]  0.0987564978085822
    x[2,15]   findWorstP[3,2]  -1.6108488798981038e-02
    x[2,16]   allocateEach[16]  1
    x[2,16]   findWorstP[1,2]  -3.0105553973827668e-02
    x[2,16]   findWorstP[2,1]  7.6026908572011012e-02
    x[2,16]   findWorstP[2,3]  7.6026908572011012e-02
    x[2,16]   findWorstP[3,2]  -9.0872480707275036e-02
    x[2,17]   allocateEach[17]  1
    x[2,17]   findWorstP[1,2]  -9.5958158025160006e-04
    x[2,17]   findWorstP[2,1]  5.9443481806135970e-02
    x[2,17]   findWorstP[2,3]  5.9443481806135970e-02
    x[2,17]   findWorstP[3,2]  -2.7637296770809911e-02
    x[3,1]    allocateEach[1]  1
    x[3,1]    findWorstP[1,3]  -8.1933504159944319e-03
    x[3,1]    findWorstP[2,3]  -3.3452247477321374e-02
    x[3,1]    findWorstP[3,1]  8.3792237956094986e-02
    x[3,1]    findWorstP[3,2]  8.3792237956094986e-02
    x[3,2]    allocateEach[2]  1
    x[3,2]    findWorstP[1,3]  -9.3532841943205408e-02
    x[3,2]    findWorstP[2,3]  -9.3323820201814289e-02
    x[3,2]    findWorstP[3,1]  7.7470592642541386e-02
    x[3,2]    findWorstP[3,2]  7.7470592642541386e-02
    x[3,3]    allocateEach[3]  1
    x[3,3]    findWorstP[1,3]  -9.4587327196229143e-03
    x[3,3]    findWorstP[2,3]  -0.0833044541840791
    x[3,3]    findWorstP[3,1]  9.3419869633625516e-02
    x[3,3]    findWorstP[3,2]  9.3419869633625516e-02
    x[3,4]    allocateEach[4]  1
    x[3,4]    findWorstP[1,3]  -7.9961616736789920e-02
    x[3,4]    findWorstP[2,3]  -1.0132504331872387e-01
    x[3,4]    findWorstP[3,1]  1.4319697310256984e-02
    x[3,4]    findWorstP[3,2]  1.4319697310256984e-02
    x[3,5]    allocateEach[5]  1
    x[3,5]    findWorstP[1,3]  -3.3005388419642942e-02
    x[3,5]    findWorstP[2,3]  -1.3566405055549893e-02
    x[3,5]    findWorstP[3,1]  3.7433505656701872e-02
    x[3,5]    findWorstP[3,2]  3.7433505656701872e-02
    x[3,6]    allocateEach[6]  1
    x[3,6]    findWorstP[1,3]  -7.0070545063427275e-02
    x[3,6]    findWorstP[2,3]  -2.3371725614106616e-02
    x[3,6]    findWorstP[3,1]  8.2434254888739025e-02
    x[3,6]    findWorstP[3,2]  8.2434254888739025e-02
    x[3,7]    allocateEach[7]  1
    x[3,7]    findWorstP[1,3]  -9.0158489133529446e-02
    x[3,7]    findWorstP[2,3]  -5.4428702476811740e-03
    x[3,7]    findWorstP[3,1]  3.3874653480182808e-02
    x[3,7]    findWorstP[3,2]  3.3874653480182808e-02
    x[3,8]    allocateEach[8]  1
    x[3,8]    findWorstP[1,3]  -1.0444676431200109e-01
    x[3,8]    findWorstP[2,3]  -1.0641117113444093e-02
    x[3,8]    findWorstP[3,1]  0.070455907694613
    x[3,8]    findWorstP[3,2]  0.070455907694613
    x[3,9]    allocateEach[9]  1
    x[3,9]    findWorstP[1,3]  -9.5915978615039046e-02
    x[3,9]    findWorstP[2,3]  -1.0035674243196412e-01
    x[3,9]    findWorstP[3,1]  7.1607851951749443e-02
    x[3,9]    findWorstP[3,2]  7.1607851951749443e-02
    x[3,10]   allocateEach[10]  1
    x[3,10]   findWorstP[1,3]  -2.2861240285554602e-02
    x[3,10]   findWorstP[2,3]  -7.8931811232290275e-02
    x[3,10]   findWorstP[3,1]  8.2256312279913063e-02
    x[3,10]   findWorstP[3,2]  8.2256312279913063e-02
    x[3,11]   allocateEach[11]  1
    x[3,11]   findWorstP[1,3]  -0.0437716828530153
    x[3,11]   findWorstP[2,3]  -5.7863622464580572e-02
    x[3,11]   findWorstP[3,1]  1.7438375664943429e-02
    x[3,11]   findWorstP[3,2]  1.7438375664943429e-02
    x[3,12]   allocateEach[12]  1
    x[3,12]   findWorstP[1,3]  -8.4991511393713151e-02
    x[3,12]   findWorstP[2,3]  -2.7255121802058916e-02
    x[3,12]   findWorstP[3,1]  2.2570615119502504e-02
    x[3,12]   findWorstP[3,2]  2.2570615119502504e-02
    x[3,13]   allocateEach[13]  1
    x[3,13]   findWorstP[1,3]  -8.6773591471323255e-02
    x[3,13]   findWorstP[2,3]  -5.1330139639180518e-02
    x[3,13]   findWorstP[3,1]  6.2336105491870818e-02
    x[3,13]   findWorstP[3,2]  6.2336105491870818e-02
    x[3,14]   allocateEach[14]  1
    x[3,14]   findWorstP[1,3]  -4.1198738835637377e-02
    x[3,14]   findWorstP[2,3]  -4.0668637243909895e-03
    x[3,14]   findWorstP[3,1]  4.1048550236008084e-02
    x[3,14]   findWorstP[3,2]  4.1048550236008084e-02
    x[3,15]   allocateEach[15]  1
    x[3,15]   findWorstP[1,3]  -2.0235572005525497e-02
    x[3,15]   findWorstP[2,3]  -0.0987564978085822
    x[3,15]   findWorstP[3,1]  1.6108488798981038e-02
    x[3,15]   findWorstP[3,2]  1.6108488798981038e-02
    x[3,16]   allocateEach[16]  1
    x[3,16]   findWorstP[1,3]  -3.0105553973827668e-02
    x[3,16]   findWorstP[2,3]  -7.6026908572011012e-02
    x[3,16]   findWorstP[3,1]  9.0872480707275036e-02
    x[3,16]   findWorstP[3,2]  9.0872480707275036e-02
    x[3,17]   allocateEach[17]  1
    x[3,17]   findWorstP[1,3]  -9.5958158025160006e-04
    x[3,17]   findWorstP[2,3]  -5.9443481806135970e-02
    x[3,17]   findWorstP[3,1]  2.7637296770809911e-02
    x[3,17]   findWorstP[3,2]  2.7637296770809911e-02
    MARKER    'MARKER'                 'INTEND'
RHS
    RHS1      allocateEach[1]  1
    RHS1      allocateEach[2]  1
    RHS1      allocateEach[3]  1
    RHS1      allocateEach[4]  1
    RHS1      allocateEach[5]  1
    RHS1      allocateEach[6]  1
    RHS1      allocateEach[7]  1
    RHS1      allocateEach[8]  1
    RHS1      allocateEach[9]  1
    RHS1      allocateEach[10]  1
    RHS1      allocateEach[11]  1
    RHS1      allocateEach[12]  1
    RHS1      allocateEach[13]  1
    RHS1      allocateEach[14]  1
    RHS1      allocateEach[15]  1
    RHS1      allocateEach[16]  1
    RHS1      allocateEach[17]  1
    RHS1      allocateAllCash  1
BOUNDS
 UP BND1      z         1
 MI BND1      cashProportion[1]
 UP BND1      cashProportion[1]  1
 MI BND1      cashProportion[2]
 UP BND1      cashProportion[2]  1
 MI BND1      cashProportion[3]
 UP BND1      cashProportion[3]  1
 BV BND1      x[1,1]  
 BV BND1      x[1,2]  
 BV BND1      x[1,3]  
 BV BND1      x[1,4]  
 BV BND1      x[1,5]  
 BV BND1      x[1,6]  
 BV BND1      x[1,7]  
 BV BND1      x[1,8]  
 BV BND1      x[1,9]  
 BV BND1      x[1,10] 
 BV BND1      x[1,11] 
 BV BND1      x[1,12] 
 BV BND1      x[1,13] 
 BV BND1      x[1,14] 
 BV BND1      x[1,15] 
 BV BND1      x[1,16] 
 BV BND1      x[1,17] 
 BV BND1      x[2,1]  
 BV BND1      x[2,2]  
 BV BND1      x[2,3]  
 BV BND1      x[2,4]  
 BV BND1      x[2,5]  
 BV BND1      x[2,6]  
 BV BND1      x[2,7]  
 BV BND1      x[2,8]  
 BV BND1      x[2,9]  
 BV BND1      x[2,10] 
 BV BND1      x[2,11] 
 BV BND1      x[2,12] 
 BV BND1      x[2,13] 
 BV BND1      x[2,14] 
 BV BND1      x[2,15] 
 BV BND1      x[2,16] 
 BV BND1      x[2,17] 
 BV BND1      x[3,1]  
 BV BND1      x[3,2]  
 BV BND1      x[3,3]  
 BV BND1      x[3,4]  
 BV BND1      x[3,5]  
 BV BND1      x[3,6]  
 BV BND1      x[3,7]  
 BV BND1      x[3,8]  
 BV BND1      x[3,9]  
 BV BND1      x[3,10] 
 BV BND1      x[3,11] 
 BV BND1      x[3,12] 
 BV BND1      x[3,13] 
 BV BND1      x[3,14] 
 BV BND1      x[3,15] 
 BV BND1      x[3,16] 
 BV BND1      x[3,17] 
ENDATA
